Problem:    
Rows:       167
Columns:    300 (300 integer, 300 binary)
Non-zeros:  1851
Status:     INTEGER OPTIMAL
Objective:  score = 15171.364 (MAXimum)

   No.   Row name        Activity     Lower bound   Upper bound
------ ------------    ------------- ------------- -------------
     1 index_0                     1             0               
     2 index_1                     0             0               
     3 index_2                     0             0               
     4 index_3                     0             0               
     5 index_4                     0             0               
     6 index_5                     0             0               
     7 index_6                     0             0               
     8 index_7                     1             0               
     9 index_8                     0             0               
    10 index_9                     0             0               
    11 index_10                    0             0               
    12 index_11                    0             0               
    13 index_12                    0             0               
    14 index_13                    0             0               
    15 index_14                    0             0               
    16 index_15                    0             0               
    17 index_16                    0             0               
    18 index_17                    1             0               
    19 index_18                    0             0               
    20 index_19                    0             0               
    21 index_20                    0             0               
    22 index_21                    0             0               
    23 index_22                    0             0               
    24 index_23                    2             0               
    25 index_24                    0             0               
    26 index_25                    0             0               
    27 index_26                    0             0               
    28 index_27                    0             0               
    29 index_28                    0             0               
    30 index_29                    1             0               
    31 index_30                    2             0               
    32 index_31                    0             0               
    33 index_32                    0             0               
    34 index_33                    1             0               
    35 index_34                    0             0               
    36 index_35                    1             0               
    37 index_36                    0             0               
    38 index_37                    0             0               
    39 index_38                    0             0               
    40 index_39                    0             0               
    41 index_40                    0             0               
    42 index_41                    0             0               
    43 index_42                    0             0               
    44 index_43                    0             0               
    45 index_44                    1             0               
    46 index_45                    0             0               
    47 index_46                    0             0               
    48 index_47                    2             0               
    49 index_48                    0             0               
    50 index_49                    1             0               
    51 index_50                    0             0               
    52 index_51                    0             0               
    53 index_52                    0             0               
    54 index_53                    0             0               
    55 index_54                    0             0               
    56 index_55                    0             0               
    57 index_56                    1             0               
    58 index_57                    0             0               
    59 index_58                    0             0               
    60 index_59                    0             0               
    61 index_60                    0             0               
    62 index_61                    0             0               
    63 index_62                    0             0               
    64 index_63                    0             0               
    65 index_64                    1             0               
    66 index_65                    0             0               
    67 index_66                    0             0               
    68 index_67                    0             0               
    69 index_68                    0             0               
    70 index_69                    0             0               
    71 index_70                    0             0               
    72 index_71                    0             0               
    73 index_72                    3             0               
    74 index_73                    0             0               
    75 index_74                    3             0               
    76 index_75                    0             0               
    77 index_76                    0             0               
    78 index_77                    0             0               
    79 index_78                    0             0               
    80 index_79                    0             0               
    81 index_80                    0             0               
    82 index_81                    2             0               
    83 index_82                    0             0               
    84 index_83                    0             0               
    85 index_84                    0             0               
    86 index_85                    0             0               
    87 index_86                    0             0               
    88 index_87                    0             0               
    89 index_88                    0             0               
    90 index_89                    1             0               
    91 index_90                    1             0               
    92 index_91                    0             0               
    93 index_92                    1             0               
    94 index_93                    0             0               
    95 index_94                    0             0               
    96 index_95                    0             0               
    97 index_96                    0             0               
    98 index_97                    0             0               
    99 index_98                    0             0               
   100 index_99                    0             0               
   101 index_100                   0             0               
   102 index_101                   0             0               
   103 index_102                   0             0               
   104 index_103                   0             0               
   105 index_104                   0             0               
   106 index_105                   0             0               
   107 index_106                   0             0               
   108 index_107                   0             0               
   109 index_108                   0             0               
   110 index_109                   0             0               
   111 index_110                   2             0               
   112 index_111                   0             0               
   113 index_112                   0             0               
   114 index_113                   0             0               
   115 index_114                   0             0               
   116 index_115                   0             0               
   117 index_116                   0             0               
   118 index_117                   0             0               
   119 index_118                   0             0               
   120 index_119                   0             0               
   121 index_120                   2             0               
   122 index_121                   0             0               
   123 index_122                   0             0               
   124 index_123                   0             0               
   125 index_124                   0             0               
   126 index_125                   0             0               
   127 index_126                   3             0               
   128 index_127                   0             0               
   129 index_128                   0             0               
   130 index_129                   0             0               
   131 index_130                   1             0               
   132 index_131                   1             0               
   133 index_132                   0             0               
   134 index_133                   0             0               
   135 index_134                   0             0               
   136 index_135                   0             0               
   137 index_136                   0             0               
   138 index_137                   0             0               
   139 index_138                   1             0               
   140 index_139                   0             0               
   141 index_140                   0             0               
   142 index_141                   1             0               
   143 index_142                   0             0               
   144 index_143                   0             0               
   145 index_144                   0             0               
   146 index_145                   0             0               
   147 index_146                   0             0               
   148 index_147                   0             0               
   149 index_148                   0             0               
   150 index_149                   0             0               
   151 index_150                   0             0               
   152 index_151                   0             0               
   153 index_152                   0             0               
   154 index_153                   0             0               
   155 index_154                   0             0               
   156 index_155                   2             0               
   157 index_156                   0             0               
   158 index_157                   0             0               
   159 index_158                   0             0               
   160 index_159                   1             0               
   161 index_160                   1             0               
   162 index_161                   1             0               
   163 index_162                   2             0               
   164 index_163                   1             0               
   165 index_164                   0             0               
   166 index_165                   1             0               
   167 length                      7                           7 

   No. Column name       Activity     Lower bound   Upper bound
------ ------------    ------------- ------------- -------------
     1 c0           *              0             0             1 
     2 c1           *              1             0             1 
     3 c2           *              1             0             1 
     4 c3           *              0             0             1 
     5 c4           *              1             0             1 
     6 c5           *              1             0             1 
     7 c6           *              1             0             1 
     8 c7           *              0             0             1 
     9 c8           *              1             0             1 
    10 c9           *              1             0             1 
    11 c10          *              1             0             1 
    12 c11          *              1             0             1 
    13 c12          *              1             0             1 
    14 c13          *              1             0             1 
    15 c14          *              1             0             1 
    16 c15          *              1             0             1 
    17 c16          *              1             0             1 
    18 c17          *              0             0             1 
    19 c18          *              1             0             1 
    20 c19          *              1             0             1 
    21 c20          *              1             0             1 
    22 c21          *              1             0             1 
    23 c22          *              1             0             1 
    24 c23          *              0             0             1 
    25 c24          *              1             0             1 
    26 c25          *              1             0             1 
    27 c26          *              1             0             1 
    28 c27          *              0             0             1 
    29 c28          *              0             0             1 
    30 c29          *              0             0             1 
    31 c30          *              1             0             1 
    32 c31          *              0             0             1 
    33 c32          *              1             0             1 
    34 c33          *              0             0             1 
    35 c34          *              0             0             1 
    36 c35          *              1             0             1 
    37 c36          *              0             0             1 
    38 c37          *              0             0             1 
    39 c38          *              1             0             1 
    40 c39          *              1             0             1 
    41 c40          *              1             0             1 
    42 c41          *              1             0             1 
    43 c42          *              1             0             1 
    44 c43          *              1             0             1 
    45 c44          *              1             0             1 
    46 c45          *              1             0             1 
    47 c46          *              0             0             1 
    48 c47          *              1             0             1 
    49 c48          *              1             0             1 
    50 c49          *              0             0             1 
    51 c50          *              0             0             1 
    52 c51          *              1             0             1 
    53 c52          *              1             0             1 
    54 c53          *              1             0             1 
    55 c54          *              1             0             1 
    56 c55          *              1             0             1 
    57 c56          *              0             0             1 
    58 c57          *              0             0             1 
    59 c58          *              0             0             1 
    60 c59          *              0             0             1 
    61 c60          *              1             0             1 
    62 c61          *              0             0             1 
    63 c62          *              0             0             1 
    64 c63          *              1             0             1 
    65 c64          *              0             0             1 
    66 c65          *              1             0             1 
    67 c66          *              0             0             1 
    68 c67          *              0             0             1 
    69 c68          *              1             0             1 
    70 c69          *              0             0             1 
    71 c70          *              0             0             1 
    72 c71          *              0             0             1 
    73 c72          *              0             0             1 
    74 c73          *              1             0             1 
    75 c74          *              0             0             1 
    76 c75          *              0             0             1 
    77 c76          *              0             0             1 
    78 c77          *              1             0             1 
    79 c78          *              0             0             1 
    80 c79          *              0             0             1 
    81 c80          *              0             0             1 
    82 c81          *              0             0             1 
    83 c82          *              0             0             1 
    84 c83          *              0             0             1 
    85 c84          *              0             0             1 
    86 c85          *              1             0             1 
    87 c86          *              0             0             1 
    88 c87          *              1             0             1 
    89 c88          *              0             0             1 
    90 c89          *              0             0             1 
    91 c90          *              0             0             1 
    92 c91          *              0             0             1 
    93 c92          *              0             0             1 
    94 c93          *              0             0             1 
    95 c94          *              1             0             1 
    96 c95          *              0             0             1 
    97 c96          *              0             0             1 
    98 c97          *              0             0             1 
    99 c98          *              0             0             1 
   100 c99          *              0             0             1 
   101 c100         *              0             0             1 
   102 c101         *              0             0             1 
   103 c102         *              0             0             1 
   104 c103         *              1             0             1 
   105 c104         *              0             0             1 
   106 c105         *              0             0             1 
   107 c106         *              0             0             1 
   108 c107         *              0             0             1 
   109 c108         *              0             0             1 
   110 c109         *              0             0             1 
   111 c110         *              0             0             1 
   112 c111         *              1             0             1 
   113 c112         *              0             0             1 
   114 c113         *              0             0             1 
   115 c114         *              0             0             1 
   116 c115         *              1             0             1 
   117 c116         *              0             0             1 
   118 c117         *              1             0             1 
   119 c118         *              0             0             1 
   120 c119         *              1             0             1 
   121 c120         *              1             0             1 
   122 c121         *              1             0             1 
   123 c122         *              0             0             1 
   124 c123         *              0             0             1 
   125 c124         *              0             0             1 
   126 c125         *              0             0             1 
   127 c126         *              0             0             1 
   128 c127         *              0             0             1 
   129 c128         *              0             0             1 
   130 c129         *              1             0             1 
   131 c130         *              1             0             1 
   132 c131         *              0             0             1 
   133 c132         *              0             0             1 
   134 c133         *              0             0             1 
   135 c134         *              1             0             1 
   136 c135         *              0             0             1 
   137 c136         *              0             0             1 
   138 c137         *              1             0             1 
   139 c138         *              0             0             1 
   140 c139         *              0             0             1 
   141 c140         *              0             0             1 
   142 c141         *              0             0             1 
   143 c142         *              1             0             1 
   144 c143         *              1             0             1 
   145 c144         *              1             0             1 
   146 c145         *              1             0             1 
   147 c146         *              1             0             1 
   148 c147         *              1             0             1 
   149 c148         *              1             0             1 
   150 c149         *              1             0             1 
   151 c150         *              1             0             1 
   152 c151         *              1             0             1 
   153 c152         *              1             0             1 
   154 c153         *              0             0             1 
   155 c154         *              0             0             1 
   156 c155         *              0             0             1 
   157 c156         *              0             0             1 
   158 c157         *              0             0             1 
   159 c158         *              1             0             1 
   160 c159         *              1             0             1 
   161 c160         *              0             0             1 
   162 c161         *              1             0             1 
   163 c162         *              0             0             1 
   164 c163         *              1             0             1 
   165 c164         *              0             0             1 
   166 c165         *              1             0             1 
   167 s78          *              1             0             1 
   168 s80          *              0             0             1 
   169 s84          *              0             0             1 
   170 s87          *              0             0             1 
   171 s92          *              0             0             1 
   172 s94          *              0             0             1 
   173 s97          *              0             0             1 
   174 s101         *              0             0             1 
   175 s14          *              1             0             1 
   176 s15          *              0             0             1 
   177 s16          *              0             0             1 
   178 s79          *              0             0             1 
   179 s82          *              0             0             1 
   180 s85          *              0             0             1 
   181 s88          *              0             0             1 
   182 s93          *              0             0             1 
   183 s98          *              0             0             1 
   184 s102         *              0             0             1 
   185 s133         *              0             0             1 
   186 s20          *              0             0             1 
   187 s21          *              0             0             1 
   188 s34          *              0             0             1 
   189 s39          *              0             0             1 
   190 s49          *              0             0             1 
   191 s50          *              0             0             1 
   192 s64          *              0             0             1 
   193 s69          *              1             0             1 
   194 s77          *              0             0             1 
   195 s83          *              0             0             1 
   196 s86          *              0             0             1 
   197 s91          *              0             0             1 
   198 s96          *              0             0             1 
   199 s100         *              0             0             1 
   200 s25          *              0             0             1 
   201 s75          *              0             0             1 
   202 s76          *              0             0             1 
   203 s90          *              0             0             1 
   204 s99          *              0             0             1 
   205 s36          *              0             0             1 
   206 s41          *              0             0             1 
   207 s42          *              0             0             1 
   208 s66          *              0             0             1 
   209 s71          *              0             0             1 
   210 s73          *              0             0             1 
   211 s27          *              0             0             1 
   212 s81          *              0             0             1 
   213 s95          *              0             0             1 
   214 s104         *              0             0             1 
   215 s132         *              1             0             1 
   216 s23          *              0             0             1 
   217 s24          *              0             0             1 
   218 s29          *              0             0             1 
   219 s22          *              0             0             1 
   220 s105         *              0             0             1 
   221 s18          *              0             0             1 
   222 s19          *              0             0             1 
   223 s47          *              0             0             1 
   224 s48          *              1             0             1 
   225 s109         *              0             0             1 
   226 s110         *              0             0             1 
   227 s112         *              0             0             1 
   228 s8           *              0             0             1 
   229 s26          *              0             0             1 
   230 s38          *              0             0             1 
   231 s40          *              0             0             1 
   232 s51          *              0             0             1 
   233 s55          *              0             0             1 
   234 s68          *              0             0             1 
   235 s70          *              0             0             1 
   236 s107         *              0             0             1 
   237 s43          *              0             0             1 
   238 s74          *              0             0             1 
   239 s130         *              0             0             1 
   240 s131         *              0             0             1 
   241 s108         *              0             0             1 
   242 s37          *              0             0             1 
   243 s67          *              0             0             1 
   244 s59          *              0             0             1 
   245 s4           *              0             0             1 
   246 s45          *              0             0             1 
   247 s106         *              0             0             1 
   248 s53          *              0             0             1 
   249 s28          *              0             0             1 
   250 s58          *              0             0             1 
   251 s12          *              0             0             1 
   252 s44          *              0             0             1 
   253 s52          *              0             0             1 
   254 s57          *              0             0             1 
   255 s31          *              0             0             1 
   256 s32          *              0             0             1 
   257 s61          *              0             0             1 
   258 s62          *              0             0             1 
   259 s30          *              0             0             1 
   260 s126         *              1             0             1 
   261 s128         *              0             0             1 
   262 s11          *              0             0             1 
   263 s116         *              0             0             1 
   264 s117         *              0             0             1 
   265 s118         *              0             0             1 
   266 s113         *              0             0             1 
   267 s114         *              0             0             1 
   268 s127         *              0             0             1 
   269 s129         *              0             0             1 
   270 s5           *              0             0             1 
   271 s6           *              0             0             1 
   272 s119         *              1             0             1 
   273 s120         *              0             0             1 
   274 s123         *              0             0             1 
   275 s124         *              0             0             1 
   276 s125         *              0             0             1 
   277 s3           *              0             0             1 
   278 s10          *              0             0             1 
   279 s17          *              0             0             1 
   280 s33          *              0             0             1 
   281 s35          *              0             0             1 
   282 s46          *              0             0             1 
   283 s63          *              0             0             1 
   284 s65          *              0             0             1 
   285 s72          *              0             0             1 
   286 s89          *              0             0             1 
   287 s103         *              0             0             1 
   288 s111         *              0             0             1 
   289 s54          *              0             0             1 
   290 s56          *              0             0             1 
   291 s0           *              0             0             1 
   292 s1           *              0             0             1 
   293 s2           *              0             0             1 
   294 s9           *              0             0             1 
   295 s60          *              0             0             1 
   296 s121         *              0             0             1 
   297 s122         *              0             0             1 
   298 s13          *              0             0             1 
   299 s7           *              0             0             1 
   300 s115         *              0             0             1 

Integer feasibility conditions:

KKT.PE: max.abs.err = 0.00e+00 on row 0
        max.rel.err = 0.00e+00 on row 0
        High quality

KKT.PB: max.abs.err = 0.00e+00 on row 0
        max.rel.err = 0.00e+00 on row 0
        High quality

End of output
